&CONTROL
   calculation      = 'scf'
   outdir           = 'tmp'
   prefix           = 'TiO2clean'
   pseudo_dir       = '.'
/
&SYSTEM
   ecutwfc          = 25
   ecutrho          = 180
   occupations      = 'smearing'
   degauss          = 0.01
   smearing         = 'mv'
   ntyp             = 2
   nat              = 108
   ibrav            = 0
/
&ELECTRONS
   conv_thr         = 1e-06
/
&IONS
/
&CELL
/
&FCP
/
&RISM
/
ATOMIC_SPECIES
Ti 47.867 Ti.upf
O 15.999 O.upf

K_POINTS automatic
2 2 2  0 0 0

CELL_PARAMETERS angstrom
9.18440000000000 0.00000000000000 0.00000000000000
0.00000000000000 13.77660000000000 0.00000000000000
0.00000000000000 0.00000000000000 8.87220000000000

ATOMIC_POSITIONS angstrom
Ti 0.0000000000 0.0000000000 0.0000000000  
Ti 2.2961000000 2.2961000000 1.4787000000  
O 1.4004373100 1.4004373100 0.0000000000  
O 3.1917626900 3.1917626900 0.0000000000  
O 3.6965373100 0.8956626900 1.4787000000  
O 0.8956626900 3.6965373100 1.4787000000  
Ti 0.0000000000 0.0000000000 2.9574000000  
Ti 2.2961000000 2.2961000000 4.4361000000  
O 1.4004373100 1.4004373100 2.9574000000  
O 3.1917626900 3.1917626900 2.9574000000  
O 3.6965373100 0.8956626900 4.4361000000  
O 0.8956626900 3.6965373100 4.4361000000  
Ti 0.0000000000 0.0000000000 5.9148000000  
Ti 2.2961000000 2.2961000000 7.3935000000  
O 1.4004373100 1.4004373100 5.9148000000  
O 3.1917626900 3.1917626900 5.9148000000  
O 3.6965373100 0.8956626900 7.3935000000  
O 0.8956626900 3.6965373100 7.3935000000  
Ti 0.0000000000 4.5922000000 0.0000000000  
Ti 2.2961000000 6.8883000000 1.4787000000  
O 1.4004373100 5.9926373100 0.0000000000  
O 3.1917626900 7.7839626900 0.0000000000  
O 3.6965373100 5.4878626900 1.4787000000  
O 0.8956626900 8.2887373100 1.4787000000  
Ti 0.0000000000 4.5922000000 2.9574000000  
Ti 2.2961000000 6.8883000000 4.4361000000  
O 1.4004373100 5.9926373100 2.9574000000  
O 3.1917626900 7.7839626900 2.9574000000  
O 3.6965373100 5.4878626900 4.4361000000  
O 0.8956626900 8.2887373100 4.4361000000  
Ti 0.0000000000 4.5922000000 5.9148000000  
Ti 2.2961000000 6.8883000000 7.3935000000  
O 1.4004373100 5.9926373100 5.9148000000  
O 3.1917626900 7.7839626900 5.9148000000  
O 3.6965373100 5.4878626900 7.3935000000  
O 0.8956626900 8.2887373100 7.3935000000  
Ti 0.0000000000 9.1844000000 0.0000000000  
Ti 2.2961000000 11.4805000000 1.4787000000  
O 1.4004373100 10.5848373100 0.0000000000  
O 3.1917626900 12.3761626900 0.0000000000  
O 3.6965373100 10.0800626900 1.4787000000  
O 0.8956626900 12.8809373100 1.4787000000  
Ti 0.0000000000 9.1844000000 2.9574000000  
Ti 2.2961000000 11.4805000000 4.4361000000  
O 1.4004373100 10.5848373100 2.9574000000  
O 3.1917626900 12.3761626900 2.9574000000  
O 3.6965373100 10.0800626900 4.4361000000  
O 0.8956626900 12.8809373100 4.4361000000  
Ti 0.0000000000 9.1844000000 5.9148000000  
Ti 2.2961000000 11.4805000000 7.3935000000  
O 1.4004373100 10.5848373100 5.9148000000  
O 3.1917626900 12.3761626900 5.9148000000  
O 3.6965373100 10.0800626900 7.3935000000  
O 0.8956626900 12.8809373100 7.3935000000  
Ti 4.5922000000 0.0000000000 0.0000000000  
Ti 6.8883000000 2.2961000000 1.4787000000  
O 5.9926373100 1.4004373100 0.0000000000  
O 7.7839626900 3.1917626900 0.0000000000  
O 8.2887373100 0.8956626900 1.4787000000  
O 5.4878626900 3.6965373100 1.4787000000  
Ti 4.5922000000 0.0000000000 2.9574000000  
Ti 6.8883000000 2.2961000000 4.4361000000  
O 5.9926373100 1.4004373100 2.9574000000  
O 7.7839626900 3.1917626900 2.9574000000  
O 8.2887373100 0.8956626900 4.4361000000  
O 5.4878626900 3.6965373100 4.4361000000  
Ti 4.5922000000 0.0000000000 5.9148000000  
Ti 6.8883000000 2.2961000000 7.3935000000  
O 5.9926373100 1.4004373100 5.9148000000  
O 7.7839626900 3.1917626900 5.9148000000  
O 8.2887373100 0.8956626900 7.3935000000  
O 5.4878626900 3.6965373100 7.3935000000  
Ti 4.5922000000 4.5922000000 0.0000000000  
Ti 6.8883000000 6.8883000000 1.4787000000  
O 5.9926373100 5.9926373100 0.0000000000  
O 7.7839626900 7.7839626900 0.0000000000  
O 8.2887373100 5.4878626900 1.4787000000  
O 5.4878626900 8.2887373100 1.4787000000  
Ti 4.5922000000 4.5922000000 2.9574000000  
Ti 6.8883000000 6.8883000000 4.4361000000  
O 5.9926373100 5.9926373100 2.9574000000  
O 7.7839626900 7.7839626900 2.9574000000  
O 8.2887373100 5.4878626900 4.4361000000  
O 5.4878626900 8.2887373100 4.4361000000  
Ti 4.5922000000 4.5922000000 5.9148000000  
Ti 6.8883000000 6.8883000000 7.3935000000  
O 5.9926373100 5.9926373100 5.9148000000  
O 7.7839626900 7.7839626900 5.9148000000  
O 8.2887373100 5.4878626900 7.3935000000  
O 5.4878626900 8.2887373100 7.3935000000  
Ti 4.5922000000 9.1844000000 0.0000000000  
Ti 6.8883000000 11.4805000000 1.4787000000  
O 5.9926373100 10.5848373100 0.0000000000  
O 7.7839626900 12.3761626900 0.0000000000  
O 8.2887373100 10.0800626900 1.4787000000  
O 5.4878626900 12.8809373100 1.4787000000  
Ti 4.5922000000 9.1844000000 2.9574000000  
Ti 6.8883000000 11.4805000000 4.4361000000  
O 5.9926373100 10.5848373100 2.9574000000  
O 7.7839626900 12.3761626900 2.9574000000  
O 8.2887373100 10.0800626900 4.4361000000  
O 5.4878626900 12.8809373100 4.4361000000  
Ti 4.5922000000 9.1844000000 5.9148000000  
Ti 6.8883000000 11.4805000000 7.3935000000  
O 5.9926373100 10.5848373100 5.9148000000  
O 7.7839626900 12.3761626900 5.9148000000  
O 8.2887373100 10.0800626900 7.3935000000  
O 5.4878626900 12.8809373100 7.3935000000  

