&control
  calculation = 'relax',
  prefix = 'TiO2_defect_O2',
  outdir = './tmp',
  pseudo_dir = './',
  verbosity = 'high',
/

&system
  ibrav = 0,
  nat = 108,
  ntyp = 2,
  ecutwfc = 30,
  ecutrho = 240,
  occupations = 'smearing',
  smearing = 'mv',
  degauss = 0.01,
/

&electrons
  conv_thr = 1.0d-6,
  mixing_beta = 0.7,
/

&ions
  ion_dynamics = 'bfgs',
/

ATOMIC_SPECIES
Ti  47.867  Ti.upf
O   15.999  O.upf

CELL_PARAMETERS angstrom
9.184400 0.000000 0.000000
0.000000 13.776600 0.000000
0.000000 0.000000 8.872200

ATOMIC_POSITIONS angstrom
Ti 0.000000 0.000000 0.000000
Ti 2.296100 2.296100 1.478700
O 1.400437 1.400437 0.000000
O 3.191763 3.191763 0.000000
O 3.696537 0.895663 1.478700
O 0.895663 3.696537 1.478700
Ti 0.000000 0.000000 2.957400
Ti 2.296100 2.296100 4.436100
O 1.400437 1.400437 2.957400
O 3.696537 0.895663 4.436100
O 0.895663 3.696537 4.436100
Ti 0.000000 0.000000 5.914800
Ti 2.296100 2.296100 7.393500
O 1.400437 1.400437 5.914800
O 3.191763 3.191763 5.914800
O 3.696537 0.895663 7.393500
O 0.895663 3.696537 7.393500
Ti 0.000000 4.592200 0.000000
Ti 2.296100 6.888300 1.478700
O 1.400437 5.992637 0.000000
O 3.191763 7.783963 0.000000
O 3.696537 5.487863 1.478700
O 0.895663 8.288737 1.478700
Ti 0.000000 4.592200 2.957400
Ti 2.296100 6.888300 4.436100
O 1.400437 5.992637 2.957400
O 3.191763 7.783963 2.957400
O 3.696537 5.487863 4.436100
O 0.895663 8.288737 4.436100
Ti 0.000000 4.592200 5.914800
Ti 2.296100 6.888300 7.393500
O 1.400437 5.992637 5.914800
O 3.191763 7.783963 5.914800
O 3.696537 5.487863 7.393500
O 0.895663 8.288737 7.393500
Ti 0.000000 9.184400 0.000000
Ti 2.296100 11.480500 1.478700
O 1.400437 10.584837 0.000000
O 3.191763 12.376163 0.000000
O 3.696537 10.080063 1.478700
O 0.895663 12.880937 1.478700
Ti 0.000000 9.184400 2.957400
Ti 2.296100 11.480500 4.436100
O 1.400437 10.584837 2.957400
O 3.191763 12.376163 2.957400
O 3.696537 10.080063 4.436100
O 0.895663 12.880937 4.436100
Ti 0.000000 9.184400 5.914800
Ti 2.296100 11.480500 7.393500
O 1.400437 10.584837 5.914800
O 3.191763 12.376163 5.914800
O 3.696537 10.080063 7.393500
O 0.895663 12.880937 7.393500
Ti 4.592200 0.000000 0.000000
Ti 6.888300 2.296100 1.478700
O 5.992637 1.400437 0.000000
O 7.783963 3.191763 0.000000
O 8.288737 0.895663 1.478700
O 5.487863 3.696537 1.478700
Ti 4.592200 0.000000 2.957400
Ti 6.888300 2.296100 4.436100
O 5.992637 1.400437 2.957400
O 7.783963 3.191763 2.957400
O 8.288737 0.895663 4.436100
O 5.487863 3.696537 4.436100
Ti 4.592200 0.000000 5.914800
Ti 6.888300 2.296100 7.393500
O 5.992637 1.400437 5.914800
O 7.783963 3.191763 5.914800
O 8.288737 0.895663 7.393500
O 5.487863 3.696537 7.393500
Ti 4.592200 4.592200 0.000000
Ti 6.888300 6.888300 1.478700
O 5.992637 5.992637 0.000000
O 7.783963 7.783963 0.000000
O 8.288737 5.487863 1.478700
O 5.487863 8.288737 1.478700
Ti 4.592200 4.592200 2.957400
Ti 6.888300 6.888300 4.436100
O 5.992637 5.992637 2.957400
O 7.783963 7.783963 2.957400
O 8.288737 5.487863 4.436100
O 5.487863 8.288737 4.436100
Ti 4.592200 4.592200 5.914800
Ti 6.888300 6.888300 7.393500
O 5.992637 5.992637 5.914800
O 7.783963 7.783963 5.914800
O 8.288737 5.487863 7.393500
O 5.487863 8.288737 7.393500
Ti 4.592200 9.184400 0.000000
Ti 6.888300 11.480500 1.478700
O 5.992637 10.584837 0.000000
O 7.783963 12.376163 0.000000
O 8.288737 10.080063 1.478700
O 5.487863 12.880937 1.478700
Ti 4.592200 9.184400 2.957400
Ti 6.888300 11.480500 4.436100
O 5.992637 10.584837 2.957400
O 7.783963 12.376163 2.957400
O 8.288737 10.080063 4.436100
O 5.487863 12.880937 4.436100
Ti 4.592200 9.184400 5.914800
Ti 6.888300 11.480500 7.393500
O 7.783963 12.376163 5.914800
O 8.288737 10.080063 7.393500
O 5.487863 12.880937 7.393500
O 4.202296 6.498396 9.393500
O 4.202296 6.498396 10.603500

K_POINTS automatic
2 2 2 0 0 0
